NAME obj
ROWS
 N  OBJ
 G  R0      
 G  R1      
 G  R2      
 G  R3      
 G  R4      
 G  R5      
 G  R6      
 G  R7      
 G  R8      
 G  R9      
 G  R10     
 G  R11     
 G  R12     
 G  R13     
 G  R14     
 G  R15     
 G  R16     
 G  R17     
 G  R18     
 G  R19     
 G  R20     
 G  R21     
 G  R22     
 G  R23     
 G  R24     
 G  R25     
 G  R26     
 G  R27     
 G  R28     
 G  R29     
 G  R30     
 G  R31     
 G  R32     
 G  R33     
 G  R34     
COLUMNS
    X0        OBJ       1
    X0        R0        1
    X0        R1        1
    X0        R5        1
    X0        R15       1
    X1        OBJ       1
    X1        R0        1
    X1        R2        1
    X1        R6        1
    X1        R16       1
    X2        OBJ       1
    X2        R0        1
    X2        R3        1
    X2        R7        1
    X2        R17       1
    X3        OBJ       1
    X3        R0        1
    X3        R4        1
    X3        R8        1
    X3        R18       1
    X4        OBJ       1
    X4        R1        1
    X4        R2        1
    X4        R9        1
    X4        R19       1
    X5        OBJ       1
    X5        R1        1
    X5        R3        1
    X5        R10       1
    X5        R20       1
    X6        OBJ       1
    X6        R1        1
    X6        R4        1
    X6        R11       1
    X6        R21       1
    X7        OBJ       1
    X7        R2        1
    X7        R3        1
    X7        R12       1
    X7        R22       1
    X8        OBJ       1
    X8        R2        1
    X8        R4        1
    X8        R13       1
    X8        R23       1
    X9        OBJ       1
    X9        R3        1
    X9        R4        1
    X9        R14       1
    X9        R24       1
    X10       OBJ       1
    X10       R5        1
    X10       R6        1
    X10       R9        1
    X10       R25       1
    X11       OBJ       1
    X11       R5        1
    X11       R7        1
    X11       R10       1
    X11       R26       1
    X12       OBJ       1
    X12       R5        1
    X12       R8        1
    X12       R11       1
    X12       R27       1
    X13       OBJ       1
    X13       R6        1
    X13       R7        1
    X13       R12       1
    X13       R28       1
    X14       OBJ       1
    X14       R6        1
    X14       R8        1
    X14       R13       1
    X14       R29       1
    X15       OBJ       1
    X15       R7        1
    X15       R8        1
    X15       R14       1
    X15       R30       1
    X16       OBJ       1
    X16       R9        1
    X16       R10       1
    X16       R12       1
    X16       R31       1
    X17       OBJ       1
    X17       R9        1
    X17       R11       1
    X17       R13       1
    X17       R32       1
    X18       OBJ       1
    X18       R10       1
    X18       R11       1
    X18       R14       1
    X18       R33       1
    X19       OBJ       1
    X19       R12       1
    X19       R13       1
    X19       R14       1
    X19       R34       1
    X20       OBJ       1
    X20       R15       1
    X20       R16       1
    X20       R19       1
    X20       R25       1
    X21       OBJ       1
    X21       R15       1
    X21       R17       1
    X21       R20       1
    X21       R26       1
    X22       OBJ       1
    X22       R15       1
    X22       R18       1
    X22       R21       1
    X22       R27       1
    X23       OBJ       1
    X23       R16       1
    X23       R17       1
    X23       R22       1
    X23       R28       1
    X24       OBJ       1
    X24       R16       1
    X24       R18       1
    X24       R23       1
    X24       R29       1
    X25       OBJ       1
    X25       R17       1
    X25       R18       1
    X25       R24       1
    X25       R30       1
    X26       OBJ       1
    X26       R19       1
    X26       R20       1
    X26       R22       1
    X26       R31       1
    X27       OBJ       1
    X27       R19       1
    X27       R21       1
    X27       R23       1
    X27       R32       1
    X28       OBJ       1
    X28       R20       1
    X28       R21       1
    X28       R24       1
    X28       R33       1
    X29       OBJ       1
    X29       R22       1
    X29       R23       1
    X29       R24       1
    X29       R34       1
    X30       OBJ       1
    X30       R25       1
    X30       R26       1
    X30       R28       1
    X30       R31       1
    X31       OBJ       1
    X31       R25       1
    X31       R27       1
    X31       R29       1
    X31       R32       1
    X32       OBJ       1
    X32       R26       1
    X32       R27       1
    X32       R30       1
    X32       R33       1
    X33       OBJ       1
    X33       R28       1
    X33       R29       1
    X33       R30       1
    X33       R34       1
    X34       OBJ       1
    X34       R31       1
    X34       R32       1
    X34       R33       1
    X34       R34       1
RHS
    RHS1      R0        1
    RHS1      R1        1
    RHS1      R2        1
    RHS1      R3        1
    RHS1      R4        1
    RHS1      R5        1
    RHS1      R6        1
    RHS1      R7        1
    RHS1      R8        1
    RHS1      R9        1
    RHS1      R10       1
    RHS1      R11       1
    RHS1      R12       1
    RHS1      R13       1
    RHS1      R14       1
    RHS1      R15       1
    RHS1      R16       1
    RHS1      R17       1
    RHS1      R18       1
    RHS1      R19       1
    RHS1      R20       1
    RHS1      R21       1
    RHS1      R22       1
    RHS1      R23       1
    RHS1      R24       1
    RHS1      R25       1
    RHS1      R26       1
    RHS1      R27       1
    RHS1      R28       1
    RHS1      R29       1
    RHS1      R30       1
    RHS1      R31       1
    RHS1      R32       1
    RHS1      R33       1
    RHS1      R34       1
BOUNDS
 UP BND1      X0        1
 UP BND1      X1        1
 UP BND1      X2        1
 UP BND1      X3        1
 UP BND1      X4        1
 UP BND1      X5        1
 UP BND1      X6        1
 UP BND1      X7        1
 UP BND1      X8        1
 UP BND1      X9        1
 UP BND1      X10       1
 UP BND1      X11       1
 UP BND1      X12       1
 UP BND1      X13       1
 UP BND1      X14       1
 UP BND1      X15       1
 UP BND1      X16       1
 UP BND1      X17       1
 UP BND1      X18       1
 UP BND1      X19       1
 UP BND1      X20       1
 UP BND1      X21       1
 UP BND1      X22       1
 UP BND1      X23       1
 UP BND1      X24       1
 UP BND1      X25       1
 UP BND1      X26       1
 UP BND1      X27       1
 UP BND1      X28       1
 UP BND1      X29       1
 UP BND1      X30       1
 UP BND1      X31       1
 UP BND1      X32       1
 UP BND1      X33       1
 UP BND1      X34       1
ENDATA
